c generated by sgen
p cnf 53 116
-2 -3 -4 0
-1 -3 -4 0
-1 -2 -4 0
-1 -2 -3 0
-6 -7 -8 0
-5 -7 -8 0
-5 -6 -8 0
-5 -6 -7 0
-10 -11 -12 0
-9 -11 -12 0
-9 -10 -12 0
-9 -10 -11 0
-14 -15 -16 0
-13 -15 -16 0
-13 -14 -16 0
-13 -14 -15 0
-18 -19 -20 0
-17 -19 -20 0
-17 -18 -20 0
-17 -18 -19 0
-22 -23 -24 0
-21 -23 -24 0
-21 -22 -24 0
-21 -22 -23 0
-26 -27 -28 0
-25 -27 -28 0
-25 -26 -28 0
-25 -26 -27 0
-30 -31 -32 0
-29 -31 -32 0
-29 -30 -32 0
-29 -30 -31 0
-34 -35 -36 0
-33 -35 -36 0
-33 -34 -36 0
-33 -34 -35 0
-38 -39 -40 0
-37 -39 -40 0
-37 -38 -40 0
-37 -38 -39 0
-42 -43 -44 0
-41 -43 -44 0
-41 -42 -44 0
-41 -42 -43 0
-46 -47 -48 0
-45 -47 -48 0
-45 -46 -48 0
-45 -46 -47 0
-49 -50 -51 0
-49 -50 -52 0
-49 -50 -53 0
-49 -51 -52 0
-49 -51 -53 0
-49 -52 -53 0
-50 -51 -52 0
-50 -51 -53 0
-50 -52 -53 0
-51 -52 -53 0
9 40 29 0
23 40 29 0
23 9 29 0
23 9 40 0
45 28 16 0
31 28 16 0
31 45 16 0
31 45 28 0
11 46 19 0
7 46 19 0
7 11 19 0
7 11 46 0
35 21 44 0
47 21 44 0
47 35 44 0
47 35 21 0
33 39 8 0
13 39 8 0
13 33 8 0
13 33 39 0
52 12 41 0
15 12 41 0
15 52 41 0
15 52 12 0
18 14 22 0
2 14 22 0
2 18 22 0
2 18 14 0
17 50 30 0
34 50 30 0
34 17 30 0
34 17 50 0
26 42 20 0
38 42 20 0
38 26 20 0
38 26 42 0
48 53 3 0
37 53 3 0
37 48 3 0
37 48 53 0
5 24 25 0
51 24 25 0
51 5 25 0
51 5 24 0
6 43 32 0
4 43 32 0
4 6 32 0
4 6 43 0
27 1 10 0
27 1 49 0
27 1 36 0
27 10 49 0
27 10 36 0
27 49 36 0
1 10 49 0
1 10 36 0
1 49 36 0
10 49 36 0
